
Gurobi 9.0.2 (win64) logging started Sat Oct 10 16:27:21 2020

Changed value of parameter logfile to result\v6.2-20201010T1221\scenario_2030_eff075_cab3000.log
   Prev:   Default: 
Gurobi Optimizer version 9.0.2 build v9.0.2rc0 (win64)
Optimize a model with 1384150 rows, 884815 columns and 3912197 nonzeros
Model fingerprint: 0x6c02cb34
Coefficient statistics:
  Matrix range     [1e-07, 3e+05]
  Objective range  [1e+00, 1e+00]
  Bounds range     [0e+00, 0e+00]
  RHS range        [2e-05, 3e+08]
Warning: Model contains large matrix coefficient range
         Consider reformulating model or setting NumericFocus parameter
         to avoid numerical issues.

Concurrent LP optimizer: primal simplex, dual simplex, and barrier
Showing barrier log only...

Presolve removed 1129315 rows and 656241 columns
Presolve time: 3.54s
Presolved: 254835 rows, 342440 columns, 891938 nonzeros

Ordering time: 0.12s

Barrier statistics:
 Dense cols : 9
 AA' NZ     : 8.194e+05
 Factor NZ  : 4.461e+06 (roughly 300 MBytes of memory)
 Factor Ops : 1.125e+08 (less than 1 second per iteration)
 Threads    : 30

                  Objective                Residual
Iter       Primal          Dual         Primal    Dual     Compl     Time
   0  -1.99128249e+16 -1.58516054e+15  5.97e+06 1.56e+04  2.39e+12     4s
   1  -3.04705453e+15 -1.58902031e+15  9.05e+05 4.72e+06  7.82e+11     5s
   2  -1.24324330e+15 -1.31594847e+15  3.67e+05 8.62e+05  2.21e+11     5s
   3  -5.37618221e+14 -1.06589058e+15  1.55e+05 2.46e+05  8.60e+10     5s
   4  -1.23948339e+14 -6.84342812e+14  3.31e+04 6.88e+04  1.97e+10     5s
   5  -3.84947148e+13 -4.31548525e+14  1.00e+04 3.05e+04  7.76e+09     6s
   6  -1.79516533e+13 -2.77933106e+14  4.94e+03 1.26e+04  3.48e+09     6s
   7  -7.74451081e+12 -1.58478719e+14  2.28e+03 2.66e+03  1.14e+09     6s
   8  -1.84581837e+12 -8.35052810e+13  6.86e+02 4.39e+02  2.98e+08     6s
   9   5.93095430e+11 -1.70786507e+13  5.58e+00 5.91e+00  2.68e+07     7s
  10   2.70530901e+11 -1.89875937e+12  1.15e+00 3.57e-01  3.21e+06     7s
  11   1.32460529e+11 -9.14737945e+11  4.76e-01 1.53e-02  1.53e+06     7s
  12   6.82983023e+10 -4.66315119e+11  2.05e-01 7.45e-09  7.80e+05     7s
  13   3.05534270e+10 -1.94864681e+11  7.44e-02 7.45e-09  3.28e+05     8s
  14   1.69281227e+10 -9.65527960e+10  3.28e-02 7.45e-09  1.65e+05     8s
  15   1.63289279e+10 -8.01609227e+10  2.72e-02 7.45e-09  1.40e+05     8s
  16   1.24966721e+10 -3.58152822e+10  1.61e-02 9.31e-09  7.02e+04     8s
  17   9.97932882e+09 -1.60122596e+10  7.14e-03 7.45e-09  3.77e+04     9s
  18   8.27096694e+09  4.76946367e+08  2.67e-03 9.31e-09  1.13e+04     9s
  19   7.97929013e+09  3.04671809e+09  2.14e-03 5.59e-09  7.16e+03     9s
  20   7.75680748e+09  4.50347763e+09  1.74e-03 5.59e-09  4.73e+03    10s
  21   7.58559647e+09  4.76517919e+09  1.45e-03 5.59e-09  4.10e+03    10s
  22   7.49345589e+09  5.09328995e+09  1.29e-03 3.73e-09  3.49e+03    10s
  23   7.26951894e+09  5.66515302e+09  9.11e-04 3.73e-09  2.33e+03    10s
  24   7.09089222e+09  5.76700565e+09  6.06e-04 3.73e-09  1.92e+03    11s
  25   6.90127536e+09  6.12244256e+09  2.87e-04 2.79e-09  1.13e+03    11s
  26   6.80532442e+09  6.32264817e+09  1.42e-04 1.86e-09  6.98e+02    11s
  27   6.78690355e+09  6.38471596e+09  1.17e-04 1.86e-09  5.82e+02    12s
  28   6.76663275e+09  6.39572344e+09  8.70e-05 2.79e-09  5.36e+02    12s
  29   6.74464861e+09  6.43792952e+09  5.54e-05 1.86e-09  4.43e+02    12s
  30   6.72079614e+09  6.50170932e+09  2.23e-05 1.86e-09  3.16e+02    12s
  31   6.71462605e+09  6.51703185e+09  1.56e-05 1.86e-09  2.85e+02    13s
  32   6.70519815e+09  6.58765033e+09  6.18e-06 1.86e-09  1.70e+02    13s
  33   6.70375827e+09  6.59630155e+09  5.14e-06 1.86e-09  1.55e+02    13s
  34   6.70211278e+09  6.60213800e+09  3.95e-06 1.86e-09  1.44e+02    14s
  35   6.70200184e+09  6.60786012e+09  3.87e-06 2.79e-09  1.36e+02    14s
  36   6.70080164e+09  6.62227755e+09  2.90e-06 1.86e-09  1.13e+02    14s
  37   6.69916017e+09  6.64809342e+09  1.50e-06 1.86e-09  7.37e+01    15s
  38   6.69774709e+09  6.65686498e+09  3.69e-07 1.86e-09  5.90e+01    15s
  39   6.69745672e+09  6.66518679e+09  2.35e-07 1.86e-09  4.66e+01    15s
  40   6.69719818e+09  6.66632232e+09  1.71e-07 1.86e-09  4.46e+01    16s
  41   6.69707257e+09  6.67015656e+09  1.19e-07 2.79e-09  3.89e+01    16s
  42   6.69705110e+09  6.67318105e+09  7.65e-08 2.79e-09  3.45e+01    16s
  43   6.69679816e+09  6.67734306e+09  1.63e-07 1.86e-09  2.81e+01    16s
  44   6.69669599e+09  6.68292511e+09  1.06e-07 1.86e-09  1.99e+01    17s
  45   6.69668106e+09  6.68649448e+09  1.44e-07 1.86e-09  1.47e+01    17s
  46   6.69661231e+09  6.68954658e+09  1.08e-07 1.86e-09  1.02e+01    17s
  47   6.69655419e+09  6.69059933e+09  1.23e-07 1.86e-09  8.60e+00    18s
  48   6.69655160e+09  6.69115320e+09  4.11e-07 1.86e-09  7.79e+00    18s
  49   6.69654972e+09  6.69164936e+09  3.12e-07 1.86e-09  7.07e+00    18s
  50   6.69653560e+09  6.69199769e+09  3.50e-07 1.86e-09  6.55e+00    18s
  51   6.69653603e+09  6.69268411e+09  3.08e-07 2.79e-09  5.56e+00    18s
  52   6.69650807e+09  6.69636306e+09  3.31e-07 2.79e-09  2.09e-01    19s
  53   6.69648099e+09  6.69647722e+09  2.59e-08 2.79e-09  5.45e-03    19s
  54   6.69647797e+09  6.69647775e+09  1.30e-09 1.14e-08  3.18e-04    20s
  55   6.69647797e+09  6.69647775e+09  5.77e-04 4.67e-08  3.18e-04    20s

Barrier solved model in 55 iterations and 20.19 seconds
Optimal objective 6.69647797e+09

Crossover log...

   75563 DPushes remaining with DInf 0.0000000e+00                20s
       0 DPushes remaining with DInf 0.0000000e+00                24s
Warning: Markowitz tolerance tightened to 0.5

  171449 PPushes remaining with PInf 1.2525079e-03                24s
   63649 PPushes remaining with PInf 1.7553201e-02                64s
   48115 PPushes remaining with PInf 1.9634186e-02                70s
   26037 PPushes remaining with PInf 1.9247696e-02                75s
   23811 PPushes remaining with PInf 2.3552118e-02                83s
   13630 PPushes remaining with PInf 9.9875366e-02               133s
   12662 PPushes remaining with PInf 8.7815978e-02               137s
       0 PPushes remaining with PInf 0.0000000e+00               139s

  Push phase complete: Pinf 0.0000000e+00, Dinf 1.0622731e+06    139s

Iteration    Objective       Primal Inf.    Dual Inf.      Time
  196614    6.6964778e+09   0.000000e+00   1.062273e+06    140s
  196885    6.6964778e+09   0.000000e+00   2.435134e+04    140s
  198474    6.6964778e+09   0.000000e+00   9.995705e+02    145s
  199768    6.6964778e+09   0.000000e+00   0.000000e+00    148s

Solved with barrier
Solved in 199768 iterations and 148.49 seconds
Optimal objective  6.696477761e+09
Warning: unscaled primal violation = 0.000877288 and residual = 0.000877288
